unsat
( c0
  c1
  c10
  c11
  c12
  c13
  c14
  c15
  c155
  c156
  c16
  c161
  c162
  c163
  c164
  c166
  c167
  c168
  c17
  c170
  c171
  c193
  c194
  c195
  c196
  c197
  c198
  c199
  c2
  c200
  c201
  c202
  c203
  c204
  c205
  c206
  c207
  c208
  c209
  c210
  c211
  c212
  c213
  c214
  c215
  c216
  c217
  c218
  c219
  c220
  c221
  c222
  c223
  c224
  c225
  c226
  c227
  c228
  c229
  c230
  c231
  c232
  c233
  c234
  c235
  c236
  c237
  c238
  c239
  c240
  c241
  c242
  c243
  c3
  c4
  c5
  c6
  c7
  c8
  c9 )
